19
 1 380 20
 2 190 10
 3 342 18
 4 152 8
 5 209 11
 6 171 9
 7 38 2
 8 323 17
 9 114 6
 10 380 20
 11 152 8
 12 57 3
 13 38 2
 14 152 8
 15 76 4
 16 57 3
 17 152 8
 18 152 8
 19 76 4
171